50
98.0
0 49 0.41 4.46
1 48 0.33 4.6
2 47 0.33 4.76
3 46 0.3 4.6
4 45 0.28 4.85
5 44 0.24 4.81
6 43 0.47 4.51
7 42 0.5 4.62
8 41 0.28 4.79
9 40 0.27 4.77
10 39 0.65 4.96
11 38 0.39 4.65
12 37 0.25 4.87
13 36 0.5 4.82
14 35 0.36 4.76
15 34 0.38 4.57
16 33 0.27 4.7
17 32 0.57 4.81
18 31 0.61 4.98
19 30 0.22 4.85
20 29 0.34 4.46
21 28 0.54 4.28
22 27 0.3 4.7
23 26 0.73 4.82
24 25 0.26 5.07
25 24 0.55 3.85
26 23 0.26 3.99
27 22 0.61 4.19
28 21 0.43 4.61
29 20 0.32 4.72
30 19 0.29 4.77
31 18 0.66 3.66
32 17 0.41 3.77
33 16 0.44 4.1
34 15 0.57 4.2
35 14 0.58 4.68
36 13 0.26 4.7
37 12 0.76 2.65
38 11 0.69 2.94
39 10 0.48 3.09
40 9 0.66 2.88
41 8 0.53 3.62
42 7 0.79 4.25
43 6 0.22 5.02
44 5 1.75 0.62
45 4 1.48 0.42
46 3 1.28 0.9
47 2 2.96 0.9
48 1 1.59 0.53
